p cnf 32 35
-1 5 -2 9 20 25 -3 17 26 30 0 
-4 31 0 
-5 1 31 0 
-6 12 31 0 
-1 5 31 0 
-6 12 -7 32 0 
-5 1 -7 32 0 
-8 31 0 
-9 2 20 25 32 0 
-10 31 0 
-5 1 -11 32 0 
-12 6 -7 32 0 
-13 32 0 
-9 2 20 25 -11 32 0 
-12 6 -11 32 0 
-14 -11 31 0 
-15 22 27 -11 32 0 
-16 31 0 
-16 32 0 
-17 3 26 30 0 
-18 31 0 
-4 -19 31 0 
-20 2 9 25 31 0 
-5 1 32 0 
-21 -22 15 27 -19 -5 1 -12 6 32 0 
-12 6 31 0 
-22 15 27 31 0 
-20 2 9 25 32 0 
-23 28 32 0 
-24 32 0 
-25 2 9 20 -26 3 17 30 0 
-1 5 -27 15 22 30 0 
-1 5 -28 23 30 0 
-14 -29 31 0 
-5 1 -29 32 0 
